# Solution for model p01_budget_0p520
# Objective value = 5.2000000000006308e-01
Risk 5.2000000000006308e-01
0 0
1 0
3 0.001
4 30.001
5 3.0002000000000002e+01
6 40.002
7 3.3853198046694672e+01
9 71.8005096911262
c(0,1)_Rl 0.001
c(0,1)_Ru 0
c(0,3)_Rl 0
c(0,3)_Ru 0
c(3,4)_Rl 0
c(3,4)_Ru 0
c(4,5)_Rl 0
c(4,5)_Ru 0
c(3,5)_Rl 0
c(3,5)_Ru 0
c(1,2)_l 0
c(1,2)_u 3.3852198046694674e+01
c(2,7)_Fl 0
c(2,7)_Fu 2.9703026861461845e-01
c(1,7)_Rl 0
c(1,7)_Ru 0
c(5,6)_Rl 0
c(5,6)_Ru 0
c(3,6)_Rl 0
c(3,6)_Ru 0
c(7,8)_l 0
c(7,8)_u 3.7946311644431518e+01
c(1,8)_Fl 0
c(1,8)_Fu 1.1148486569272231e-01
c(0,9)_Rl 0
c(0,9)_Ru 3.5799909691126196e+01
c(8,9)_Fl 0
c(8,9)_Fu 1.1148486569272231e-01
c(6,9)_Rl 0
c(6,9)_Ru 0
Cost 3.5800909691126193e+01
